NAME : eil33.50.738.tour
COMMENT : Length = 738
COMMENT : Found by LKH [Keld Helsgaun] Tue Dec 11 00:02:39 2018
TYPE : TOUR
DIMENSION : 35
TOUR_SECTION
1
5
7
33
9
11
19
23
21
25
24
22
20
14
12
10
8
6
4
35
3
13
15
27
29
17
30
28
26
18
16
2
32
34
31
-1
EOF
